(set-info :category "industrial")
(set-info :status sat)
(declare-fun x00 () (_ BitVec 8))
(declare-fun x01 () (_ BitVec 8))
(declare-fun x02 () (_ BitVec 8))
(declare-fun x03 () (_ BitVec 8))
(declare-fun x06 () (_ BitVec 8))
(declare-fun x07 () (_ BitVec 8))
(declare-fun x08 () (_ BitVec 8))
(declare-fun x10 () (_ BitVec 8))
(declare-fun x14 () (_ BitVec 8))
(declare-fun x18 () (_ BitVec 8))
(declare-fun x21 () (_ BitVec 8))
(declare-fun x23 () (_ BitVec 8))
(declare-fun x25 () (_ BitVec 8))
(declare-fun x27 () (_ BitVec 8))
(declare-fun x30 () (_ BitVec 8))
(declare-fun x31 () (_ BitVec 8))
(declare-fun x33 () (_ BitVec 8))
(declare-fun x35 () (_ BitVec 8))
(declare-fun x37 () (_ BitVec 8))
(declare-fun x38 () (_ BitVec 8))
(declare-fun x40 () (_ BitVec 8))
(declare-fun x41 () (_ BitVec 8))
(declare-fun x44 () (_ BitVec 8))
(declare-fun x45 () (_ BitVec 8))
(declare-fun x47 () (_ BitVec 8))
(declare-fun x51 () (_ BitVec 8))
(declare-fun x53 () (_ BitVec 8))
(declare-fun x55 () (_ BitVec 8))
(declare-fun x56 () (_ BitVec 8))
(declare-fun x57 () (_ BitVec 8))
(declare-fun x62 () (_ BitVec 8))
(declare-fun x64 () (_ BitVec 8))
(declare-fun x65 () (_ BitVec 8))
(declare-fun x66 () (_ BitVec 8))
(declare-fun x67 () (_ BitVec 8))
(declare-fun x70 () (_ BitVec 8))
(declare-fun x74 () (_ BitVec 8))
(declare-fun x75 () (_ BitVec 8))
(declare-fun x77 () (_ BitVec 8))
(declare-fun x80 () (_ BitVec 8))
(declare-fun x81 () (_ BitVec 8))
(declare-fun x82 () (_ BitVec 8))
(declare-fun x83 () (_ BitVec 8))
(declare-fun x84 () (_ BitVec 8))
(declare-fun x86 () (_ BitVec 8))
(declare-fun x87 () (_ BitVec 8))
(declare-fun x88 () (_ BitVec 8))
(assert (bvult x00 (_ bv9 8)))
(assert (bvult x01 (_ bv9 8)))
(assert (bvult x02 (_ bv9 8)))
(assert (bvult x03 (_ bv9 8)))
(assert (bvult x06 (_ bv9 8)))
(assert (bvult x07 (_ bv9 8)))
(assert (bvult x08 (_ bv9 8)))
(assert (bvult x10 (_ bv9 8)))
(assert (bvult x14 (_ bv9 8)))
(assert (bvult x18 (_ bv9 8)))
(assert (bvult x21 (_ bv9 8)))
(assert (bvult x23 (_ bv9 8)))
(assert (bvult x25 (_ bv9 8)))
(assert (bvult x27 (_ bv9 8)))
(assert (bvult x30 (_ bv9 8)))
(assert (bvult x31 (_ bv9 8)))
(assert (bvult x33 (_ bv9 8)))
(assert (bvult x35 (_ bv9 8)))
(assert (bvult x37 (_ bv9 8)))
(assert (bvult x38 (_ bv9 8)))
(assert (bvult x40 (_ bv9 8)))
(assert (bvult x41 (_ bv9 8)))
(assert (bvult x44 (_ bv9 8)))
(assert (bvult x45 (_ bv9 8)))
(assert (bvult x47 (_ bv9 8)))
(assert (bvult x51 (_ bv9 8)))
(assert (bvult x53 (_ bv9 8)))
(assert (bvult x55 (_ bv9 8)))
(assert (bvult x56 (_ bv9 8)))
(assert (bvult x57 (_ bv9 8)))
(assert (bvult x62 (_ bv9 8)))
(assert (bvult x64 (_ bv9 8)))
(assert (bvult x65 (_ bv9 8)))
(assert (bvult x66 (_ bv9 8)))
(assert (bvult x67 (_ bv9 8)))
(assert (bvult x70 (_ bv9 8)))
(assert (bvult x74 (_ bv9 8)))
(assert (bvult x75 (_ bv9 8)))
(assert (bvult x77 (_ bv9 8)))
(assert (bvult x80 (_ bv9 8)))
(assert (bvult x81 (_ bv9 8)))
(assert (bvult x82 (_ bv9 8)))
(assert (bvult x83 (_ bv9 8)))
(assert (bvult x84 (_ bv9 8)))
(assert (bvult x86 (_ bv9 8)))
(assert (bvult x87 (_ bv9 8)))
(assert (bvult x88 (_ bv9 8)))
(assert (not (= x00 x01)))
(assert (not (= x00 x02)))
(assert (not (= x00 x03)))
(assert (not (= x00 (_ bv1 8))))
(assert (not (= x00 (_ bv6 8))))
(assert (not (= x00 x06)))
(assert (not (= x00 x07)))
(assert (not (= x00 x08)))
(assert (not (= x01 x02)))
(assert (not (= x01 x03)))
(assert (not (= x01 (_ bv1 8))))
(assert (not (= x01 (_ bv6 8))))
(assert (not (= x01 x06)))
(assert (not (= x01 x07)))
(assert (not (= x01 x08)))
(assert (not (= x02 x03)))
(assert (not (= x02 (_ bv1 8))))
(assert (not (= x02 (_ bv6 8))))
(assert (not (= x02 x06)))
(assert (not (= x02 x07)))
(assert (not (= x02 x08)))
(assert (not (= x03 (_ bv1 8))))
(assert (not (= x03 (_ bv6 8))))
(assert (not (= x03 x06)))
(assert (not (= x03 x07)))
(assert (not (= x03 x08)))
(assert (not (= (_ bv1 8) (_ bv6 8))))
(assert (not (= (_ bv1 8) x06)))
(assert (not (= (_ bv1 8) x07)))
(assert (not (= (_ bv1 8) x08)))
(assert (not (= (_ bv6 8) x06)))
(assert (not (= (_ bv6 8) x07)))
(assert (not (= (_ bv6 8) x08)))
(assert (not (= x06 x07)))
(assert (not (= x06 x08)))
(assert (not (= x07 x08)))
(assert (not (= x10 (_ bv9 8))))
(assert (not (= x10 (_ bv5 8))))
(assert (not (= x10 (_ bv8 8))))
(assert (not (= x10 x14)))
(assert (not (= x10 (_ bv4 8))))
(assert (not (= x10 (_ bv7 8))))
(assert (not (= x10 (_ bv2 8))))
(assert (not (= x10 x18)))
(assert (not (= (_ bv9 8) (_ bv5 8))))
(assert (not (= (_ bv9 8) (_ bv8 8))))
(assert (not (= (_ bv9 8) x14)))
(assert (not (= (_ bv9 8) (_ bv4 8))))
(assert (not (= (_ bv9 8) (_ bv7 8))))
(assert (not (= (_ bv9 8) (_ bv2 8))))
(assert (not (= (_ bv9 8) x18)))
(assert (not (= (_ bv5 8) (_ bv8 8))))
(assert (not (= (_ bv5 8) x14)))
(assert (not (= (_ bv5 8) (_ bv4 8))))
(assert (not (= (_ bv5 8) (_ bv7 8))))
(assert (not (= (_ bv5 8) (_ bv2 8))))
(assert (not (= (_ bv5 8) x18)))
(assert (not (= (_ bv8 8) x14)))
(assert (not (= (_ bv8 8) (_ bv4 8))))
(assert (not (= (_ bv8 8) (_ bv7 8))))
(assert (not (= (_ bv8 8) (_ bv2 8))))
(assert (not (= (_ bv8 8) x18)))
(assert (not (= x14 (_ bv4 8))))
(assert (not (= x14 (_ bv7 8))))
(assert (not (= x14 (_ bv2 8))))
(assert (not (= x14 x18)))
(assert (not (= (_ bv4 8) (_ bv7 8))))
(assert (not (= (_ bv4 8) (_ bv2 8))))
(assert (not (= (_ bv4 8) x18)))
(assert (not (= (_ bv7 8) (_ bv2 8))))
(assert (not (= (_ bv7 8) x18)))
(assert (not (= (_ bv2 8) x18)))
(assert (not (= (_ bv2 8) x21)))
(assert (not (= (_ bv2 8) (_ bv4 8))))
(assert (not (= (_ bv2 8) x23)))
(assert (not (= (_ bv2 8) (_ bv9 8))))
(assert (not (= (_ bv2 8) x25)))
(assert (not (= (_ bv2 8) (_ bv8 8))))
(assert (not (= (_ bv2 8) x27)))
(assert (not (= (_ bv2 8) (_ bv3 8))))
(assert (not (= x21 (_ bv4 8))))
(assert (not (= x21 x23)))
(assert (not (= x21 (_ bv9 8))))
(assert (not (= x21 x25)))
(assert (not (= x21 (_ bv8 8))))
(assert (not (= x21 x27)))
(assert (not (= x21 (_ bv3 8))))
(assert (not (= (_ bv4 8) x23)))
(assert (not (= (_ bv4 8) (_ bv9 8))))
(assert (not (= (_ bv4 8) x25)))
(assert (not (= (_ bv4 8) (_ bv8 8))))
(assert (not (= (_ bv4 8) x27)))
(assert (not (= (_ bv4 8) (_ bv3 8))))
(assert (not (= x23 (_ bv9 8))))
(assert (not (= x23 x25)))
(assert (not (= x23 (_ bv8 8))))
(assert (not (= x23 x27)))
(assert (not (= x23 (_ bv3 8))))
(assert (not (= (_ bv9 8) x25)))
(assert (not (= (_ bv9 8) (_ bv8 8))))
(assert (not (= (_ bv9 8) x27)))
(assert (not (= (_ bv9 8) (_ bv3 8))))
(assert (not (= x25 (_ bv8 8))))
(assert (not (= x25 x27)))
(assert (not (= x25 (_ bv3 8))))
(assert (not (= (_ bv8 8) x27)))
(assert (not (= (_ bv8 8) (_ bv3 8))))
(assert (not (= x27 (_ bv3 8))))
(assert (not (= x30 x31)))
(assert (not (= x30 (_ bv1 8))))
(assert (not (= x30 x33)))
(assert (not (= x30 (_ bv7 8))))
(assert (not (= x30 x35)))
(assert (not (= x30 (_ bv9 8))))
(assert (not (= x30 x37)))
(assert (not (= x30 x38)))
(assert (not (= x31 (_ bv1 8))))
(assert (not (= x31 x33)))
(assert (not (= x31 (_ bv7 8))))
(assert (not (= x31 x35)))
(assert (not (= x31 (_ bv9 8))))
(assert (not (= x31 x37)))
(assert (not (= x31 x38)))
(assert (not (= (_ bv1 8) x33)))
(assert (not (= (_ bv1 8) (_ bv7 8))))
(assert (not (= (_ bv1 8) x35)))
(assert (not (= (_ bv1 8) (_ bv9 8))))
(assert (not (= (_ bv1 8) x37)))
(assert (not (= (_ bv1 8) x38)))
(assert (not (= x33 (_ bv7 8))))
(assert (not (= x33 x35)))
(assert (not (= x33 (_ bv9 8))))
(assert (not (= x33 x37)))
(assert (not (= x33 x38)))
(assert (not (= (_ bv7 8) x35)))
(assert (not (= (_ bv7 8) (_ bv9 8))))
(assert (not (= (_ bv7 8) x37)))
(assert (not (= (_ bv7 8) x38)))
(assert (not (= x35 (_ bv9 8))))
(assert (not (= x35 x37)))
(assert (not (= x35 x38)))
(assert (not (= (_ bv9 8) x37)))
(assert (not (= (_ bv9 8) x38)))
(assert (not (= x37 x38)))
(assert (not (= x40 x41)))
(assert (not (= x40 (_ bv8 8))))
(assert (not (= x40 (_ bv4 8))))
(assert (not (= x40 x44)))
(assert (not (= x40 x45)))
(assert (not (= x40 (_ bv3 8))))
(assert (not (= x40 x47)))
(assert (not (= x40 (_ bv5 8))))
(assert (not (= x41 (_ bv8 8))))
(assert (not (= x41 (_ bv4 8))))
(assert (not (= x41 x44)))
(assert (not (= x41 x45)))
(assert (not (= x41 (_ bv3 8))))
(assert (not (= x41 x47)))
(assert (not (= x41 (_ bv5 8))))
(assert (not (= (_ bv8 8) (_ bv4 8))))
(assert (not (= (_ bv8 8) x44)))
(assert (not (= (_ bv8 8) x45)))
(assert (not (= (_ bv8 8) (_ bv3 8))))
(assert (not (= (_ bv8 8) x47)))
(assert (not (= (_ bv8 8) (_ bv5 8))))
(assert (not (= (_ bv4 8) x44)))
(assert (not (= (_ bv4 8) x45)))
(assert (not (= (_ bv4 8) (_ bv3 8))))
(assert (not (= (_ bv4 8) x47)))
(assert (not (= (_ bv4 8) (_ bv5 8))))
(assert (not (= x44 x45)))
(assert (not (= x44 (_ bv3 8))))
(assert (not (= x44 x47)))
(assert (not (= x44 (_ bv5 8))))
(assert (not (= x45 (_ bv3 8))))
(assert (not (= x45 x47)))
(assert (not (= x45 (_ bv5 8))))
(assert (not (= (_ bv3 8) x47)))
(assert (not (= (_ bv3 8) (_ bv5 8))))
(assert (not (= x47 (_ bv5 8))))
(assert (not (= (_ bv5 8) x51)))
(assert (not (= (_ bv5 8) (_ bv3 8))))
(assert (not (= (_ bv5 8) x53)))
(assert (not (= (_ bv5 8) (_ bv2 8))))
(assert (not (= (_ bv5 8) x55)))
(assert (not (= (_ bv5 8) x56)))
(assert (not (= (_ bv5 8) x57)))
(assert (not (= (_ bv5 8) (_ bv4 8))))
(assert (not (= x51 (_ bv3 8))))
(assert (not (= x51 x53)))
(assert (not (= x51 (_ bv2 8))))
(assert (not (= x51 x55)))
(assert (not (= x51 x56)))
(assert (not (= x51 x57)))
(assert (not (= x51 (_ bv4 8))))
(assert (not (= (_ bv3 8) x53)))
(assert (not (= (_ bv3 8) (_ bv2 8))))
(assert (not (= (_ bv3 8) x55)))
(assert (not (= (_ bv3 8) x56)))
(assert (not (= (_ bv3 8) x57)))
(assert (not (= (_ bv3 8) (_ bv4 8))))
(assert (not (= x53 (_ bv2 8))))
(assert (not (= x53 x55)))
(assert (not (= x53 x56)))
(assert (not (= x53 x57)))
(assert (not (= x53 (_ bv4 8))))
(assert (not (= (_ bv2 8) x55)))
(assert (not (= (_ bv2 8) x56)))
(assert (not (= (_ bv2 8) x57)))
(assert (not (= (_ bv2 8) (_ bv4 8))))
(assert (not (= x55 x56)))
(assert (not (= x55 x57)))
(assert (not (= x55 (_ bv4 8))))
(assert (not (= x56 x57)))
(assert (not (= x56 (_ bv4 8))))
(assert (not (= x57 (_ bv4 8))))
(assert (not (= (_ bv7 8) (_ bv4 8))))
(assert (not (= (_ bv7 8) x62)))
(assert (not (= (_ bv7 8) (_ bv6 8))))
(assert (not (= (_ bv7 8) x64)))
(assert (not (= (_ bv7 8) x65)))
(assert (not (= (_ bv7 8) x66)))
(assert (not (= (_ bv7 8) x67)))
(assert (not (= (_ bv7 8) (_ bv8 8))))
(assert (not (= (_ bv4 8) x62)))
(assert (not (= (_ bv4 8) (_ bv6 8))))
(assert (not (= (_ bv4 8) x64)))
(assert (not (= (_ bv4 8) x65)))
(assert (not (= (_ bv4 8) x66)))
(assert (not (= (_ bv4 8) x67)))
(assert (not (= (_ bv4 8) (_ bv8 8))))
(assert (not (= x62 (_ bv6 8))))
(assert (not (= x62 x64)))
(assert (not (= x62 x65)))
(assert (not (= x62 x66)))
(assert (not (= x62 x67)))
(assert (not (= x62 (_ bv8 8))))
(assert (not (= (_ bv6 8) x64)))
(assert (not (= (_ bv6 8) x65)))
(assert (not (= (_ bv6 8) x66)))
(assert (not (= (_ bv6 8) x67)))
(assert (not (= (_ bv6 8) (_ bv8 8))))
(assert (not (= x64 x65)))
(assert (not (= x64 x66)))
(assert (not (= x64 x67)))
(assert (not (= x64 (_ bv8 8))))
(assert (not (= x65 x66)))
(assert (not (= x65 x67)))
(assert (not (= x65 (_ bv8 8))))
(assert (not (= x66 x67)))
(assert (not (= x66 (_ bv8 8))))
(assert (not (= x67 (_ bv8 8))))
(assert (not (= x70 (_ bv8 8))))
(assert (not (= x70 (_ bv2 8))))
(assert (not (= x70 (_ bv3 8))))
(assert (not (= x70 x74)))
(assert (not (= x70 x75)))
(assert (not (= x70 (_ bv5 8))))
(assert (not (= x70 x77)))
(assert (not (= x70 (_ bv6 8))))
(assert (not (= (_ bv8 8) (_ bv2 8))))
(assert (not (= (_ bv8 8) (_ bv3 8))))
(assert (not (= (_ bv8 8) x74)))
(assert (not (= (_ bv8 8) x75)))
(assert (not (= (_ bv8 8) (_ bv5 8))))
(assert (not (= (_ bv8 8) x77)))
(assert (not (= (_ bv8 8) (_ bv6 8))))
(assert (not (= (_ bv2 8) (_ bv3 8))))
(assert (not (= (_ bv2 8) x74)))
(assert (not (= (_ bv2 8) x75)))
(assert (not (= (_ bv2 8) (_ bv5 8))))
(assert (not (= (_ bv2 8) x77)))
(assert (not (= (_ bv2 8) (_ bv6 8))))
(assert (not (= (_ bv3 8) x74)))
(assert (not (= (_ bv3 8) x75)))
(assert (not (= (_ bv3 8) (_ bv5 8))))
(assert (not (= (_ bv3 8) x77)))
(assert (not (= (_ bv3 8) (_ bv6 8))))
(assert (not (= x74 x75)))
(assert (not (= x74 (_ bv5 8))))
(assert (not (= x74 x77)))
(assert (not (= x74 (_ bv6 8))))
(assert (not (= x75 (_ bv5 8))))
(assert (not (= x75 x77)))
(assert (not (= x75 (_ bv6 8))))
(assert (not (= (_ bv5 8) x77)))
(assert (not (= (_ bv5 8) (_ bv6 8))))
(assert (not (= x77 (_ bv6 8))))
(assert (not (= x80 x81)))
(assert (not (= x80 x82)))
(assert (not (= x80 x83)))
(assert (not (= x80 x84)))
(assert (not (= x80 (_ bv9 8))))
(assert (not (= x80 x86)))
(assert (not (= x80 x87)))
(assert (not (= x80 x88)))
(assert (not (= x81 x82)))
(assert (not (= x81 x83)))
(assert (not (= x81 x84)))
(assert (not (= x81 (_ bv9 8))))
(assert (not (= x81 x86)))
(assert (not (= x81 x87)))
(assert (not (= x81 x88)))
(assert (not (= x82 x83)))
(assert (not (= x82 x84)))
(assert (not (= x82 (_ bv9 8))))
(assert (not (= x82 x86)))
(assert (not (= x82 x87)))
(assert (not (= x82 x88)))
(assert (not (= x83 x84)))
(assert (not (= x83 (_ bv9 8))))
(assert (not (= x83 x86)))
(assert (not (= x83 x87)))
(assert (not (= x83 x88)))
(assert (not (= x84 (_ bv9 8))))
(assert (not (= x84 x86)))
(assert (not (= x84 x87)))
(assert (not (= x84 x88)))
(assert (not (= (_ bv9 8) x86)))
(assert (not (= (_ bv9 8) x87)))
(assert (not (= (_ bv9 8) x88)))
(assert (not (= x86 x87)))
(assert (not (= x86 x88)))
(assert (not (= x87 x88)))
(assert (not (= x00 x10)))
(assert (not (= x00 (_ bv2 8))))
(assert (not (= x00 x30)))
(assert (not (= x00 x40)))
(assert (not (= x00 (_ bv5 8))))
(assert (not (= x00 (_ bv7 8))))
(assert (not (= x00 x70)))
(assert (not (= x00 x80)))
(assert (not (= x10 (_ bv2 8))))
(assert (not (= x10 x30)))
(assert (not (= x10 x40)))
(assert (not (= x10 (_ bv5 8))))
(assert (not (= x10 (_ bv7 8))))
(assert (not (= x10 x70)))
(assert (not (= x10 x80)))
(assert (not (= (_ bv2 8) x30)))
(assert (not (= (_ bv2 8) x40)))
(assert (not (= (_ bv2 8) (_ bv5 8))))
(assert (not (= (_ bv2 8) (_ bv7 8))))
(assert (not (= (_ bv2 8) x70)))
(assert (not (= (_ bv2 8) x80)))
(assert (not (= x30 x40)))
(assert (not (= x30 (_ bv5 8))))
(assert (not (= x30 (_ bv7 8))))
(assert (not (= x30 x70)))
(assert (not (= x30 x80)))
(assert (not (= x40 (_ bv5 8))))
(assert (not (= x40 (_ bv7 8))))
(assert (not (= x40 x70)))
(assert (not (= x40 x80)))
(assert (not (= (_ bv5 8) (_ bv7 8))))
(assert (not (= (_ bv5 8) x70)))
(assert (not (= (_ bv5 8) x80)))
(assert (not (= (_ bv7 8) x70)))
(assert (not (= (_ bv7 8) x80)))
(assert (not (= x70 x80)))
(assert (not (= x01 (_ bv9 8))))
(assert (not (= x01 x21)))
(assert (not (= x01 x31)))
(assert (not (= x01 x41)))
(assert (not (= x01 x51)))
(assert (not (= x01 (_ bv4 8))))
(assert (not (= x01 (_ bv8 8))))
(assert (not (= x01 x81)))
(assert (not (= (_ bv9 8) x21)))
(assert (not (= (_ bv9 8) x31)))
(assert (not (= (_ bv9 8) x41)))
(assert (not (= (_ bv9 8) x51)))
(assert (not (= (_ bv9 8) (_ bv4 8))))
(assert (not (= (_ bv9 8) (_ bv8 8))))
(assert (not (= (_ bv9 8) x81)))
(assert (not (= x21 x31)))
(assert (not (= x21 x41)))
(assert (not (= x21 x51)))
(assert (not (= x21 (_ bv4 8))))
(assert (not (= x21 (_ bv8 8))))
(assert (not (= x21 x81)))
(assert (not (= x31 x41)))
(assert (not (= x31 x51)))
(assert (not (= x31 (_ bv4 8))))
(assert (not (= x31 (_ bv8 8))))
(assert (not (= x31 x81)))
(assert (not (= x41 x51)))
(assert (not (= x41 (_ bv4 8))))
(assert (not (= x41 (_ bv8 8))))
(assert (not (= x41 x81)))
(assert (not (= x51 (_ bv4 8))))
(assert (not (= x51 (_ bv8 8))))
(assert (not (= x51 x81)))
(assert (not (= (_ bv4 8) (_ bv8 8))))
(assert (not (= (_ bv4 8) x81)))
(assert (not (= (_ bv8 8) x81)))
(assert (not (= x02 (_ bv5 8))))
(assert (not (= x02 (_ bv4 8))))
(assert (not (= x02 (_ bv1 8))))
(assert (not (= x02 (_ bv8 8))))
(assert (not (= x02 (_ bv3 8))))
(assert (not (= x02 x62)))
(assert (not (= x02 (_ bv2 8))))
(assert (not (= x02 x82)))
(assert (not (= (_ bv5 8) (_ bv4 8))))
(assert (not (= (_ bv5 8) (_ bv1 8))))
(assert (not (= (_ bv5 8) (_ bv8 8))))
(assert (not (= (_ bv5 8) (_ bv3 8))))
(assert (not (= (_ bv5 8) x62)))
(assert (not (= (_ bv5 8) (_ bv2 8))))
(assert (not (= (_ bv5 8) x82)))
(assert (not (= (_ bv4 8) (_ bv1 8))))
(assert (not (= (_ bv4 8) (_ bv8 8))))
(assert (not (= (_ bv4 8) (_ bv3 8))))
(assert (not (= (_ bv4 8) x62)))
(assert (not (= (_ bv4 8) (_ bv2 8))))
(assert (not (= (_ bv4 8) x82)))
(assert (not (= (_ bv1 8) (_ bv8 8))))
(assert (not (= (_ bv1 8) (_ bv3 8))))
(assert (not (= (_ bv1 8) x62)))
(assert (not (= (_ bv1 8) (_ bv2 8))))
(assert (not (= (_ bv1 8) x82)))
(assert (not (= (_ bv8 8) (_ bv3 8))))
(assert (not (= (_ bv8 8) x62)))
(assert (not (= (_ bv8 8) (_ bv2 8))))
(assert (not (= (_ bv8 8) x82)))
(assert (not (= (_ bv3 8) x62)))
(assert (not (= (_ bv3 8) (_ bv2 8))))
(assert (not (= (_ bv3 8) x82)))
(assert (not (= x62 (_ bv2 8))))
(assert (not (= x62 x82)))
(assert (not (= (_ bv2 8) x82)))
(assert (not (= x03 (_ bv8 8))))
(assert (not (= x03 x23)))
(assert (not (= x03 x33)))
(assert (not (= x03 (_ bv4 8))))
(assert (not (= x03 x53)))
(assert (not (= x03 (_ bv6 8))))
(assert (not (= x03 (_ bv3 8))))
(assert (not (= x03 x83)))
(assert (not (= (_ bv8 8) x23)))
(assert (not (= (_ bv8 8) x33)))
(assert (not (= (_ bv8 8) (_ bv4 8))))
(assert (not (= (_ bv8 8) x53)))
(assert (not (= (_ bv8 8) (_ bv6 8))))
(assert (not (= (_ bv8 8) (_ bv3 8))))
(assert (not (= (_ bv8 8) x83)))
(assert (not (= x23 x33)))
(assert (not (= x23 (_ bv4 8))))
(assert (not (= x23 x53)))
(assert (not (= x23 (_ bv6 8))))
(assert (not (= x23 (_ bv3 8))))
(assert (not (= x23 x83)))
(assert (not (= x33 (_ bv4 8))))
(assert (not (= x33 x53)))
(assert (not (= x33 (_ bv6 8))))
(assert (not (= x33 (_ bv3 8))))
(assert (not (= x33 x83)))
(assert (not (= (_ bv4 8) x53)))
(assert (not (= (_ bv4 8) (_ bv6 8))))
(assert (not (= (_ bv4 8) (_ bv3 8))))
(assert (not (= (_ bv4 8) x83)))
(assert (not (= x53 (_ bv6 8))))
(assert (not (= x53 (_ bv3 8))))
(assert (not (= x53 x83)))
(assert (not (= (_ bv6 8) (_ bv3 8))))
(assert (not (= (_ bv6 8) x83)))
(assert (not (= (_ bv3 8) x83)))
(assert (not (= (_ bv1 8) x14)))
(assert (not (= (_ bv1 8) (_ bv9 8))))
(assert (not (= (_ bv1 8) (_ bv7 8))))
(assert (not (= (_ bv1 8) x44)))
(assert (not (= (_ bv1 8) (_ bv2 8))))
(assert (not (= (_ bv1 8) x64)))
(assert (not (= (_ bv1 8) x74)))
(assert (not (= (_ bv1 8) x84)))
(assert (not (= x14 (_ bv9 8))))
(assert (not (= x14 (_ bv7 8))))
(assert (not (= x14 x44)))
(assert (not (= x14 (_ bv2 8))))
(assert (not (= x14 x64)))
(assert (not (= x14 x74)))
(assert (not (= x14 x84)))
(assert (not (= (_ bv9 8) (_ bv7 8))))
(assert (not (= (_ bv9 8) x44)))
(assert (not (= (_ bv9 8) (_ bv2 8))))
(assert (not (= (_ bv9 8) x64)))
(assert (not (= (_ bv9 8) x74)))
(assert (not (= (_ bv9 8) x84)))
(assert (not (= (_ bv7 8) x44)))
(assert (not (= (_ bv7 8) (_ bv2 8))))
(assert (not (= (_ bv7 8) x64)))
(assert (not (= (_ bv7 8) x74)))
(assert (not (= (_ bv7 8) x84)))
(assert (not (= x44 (_ bv2 8))))
(assert (not (= x44 x64)))
(assert (not (= x44 x74)))
(assert (not (= x44 x84)))
(assert (not (= (_ bv2 8) x64)))
(assert (not (= (_ bv2 8) x74)))
(assert (not (= (_ bv2 8) x84)))
(assert (not (= x64 x74)))
(assert (not (= x64 x84)))
(assert (not (= x74 x84)))
(assert (not (= (_ bv6 8) (_ bv4 8))))
(assert (not (= (_ bv6 8) x25)))
(assert (not (= (_ bv6 8) x35)))
(assert (not (= (_ bv6 8) x45)))
(assert (not (= (_ bv6 8) x55)))
(assert (not (= (_ bv6 8) x65)))
(assert (not (= (_ bv6 8) x75)))
(assert (not (= (_ bv6 8) (_ bv9 8))))
(assert (not (= (_ bv4 8) x25)))
(assert (not (= (_ bv4 8) x35)))
(assert (not (= (_ bv4 8) x45)))
(assert (not (= (_ bv4 8) x55)))
(assert (not (= (_ bv4 8) x65)))
(assert (not (= (_ bv4 8) x75)))
(assert (not (= (_ bv4 8) (_ bv9 8))))
(assert (not (= x25 x35)))
(assert (not (= x25 x45)))
(assert (not (= x25 x55)))
(assert (not (= x25 x65)))
(assert (not (= x25 x75)))
(assert (not (= x25 (_ bv9 8))))
(assert (not (= x35 x45)))
(assert (not (= x35 x55)))
(assert (not (= x35 x65)))
(assert (not (= x35 x75)))
(assert (not (= x35 (_ bv9 8))))
(assert (not (= x45 x55)))
(assert (not (= x45 x65)))
(assert (not (= x45 x75)))
(assert (not (= x45 (_ bv9 8))))
(assert (not (= x55 x65)))
(assert (not (= x55 x75)))
(assert (not (= x55 (_ bv9 8))))
(assert (not (= x65 x75)))
(assert (not (= x65 (_ bv9 8))))
(assert (not (= x75 (_ bv9 8))))
(assert (not (= x06 (_ bv7 8))))
(assert (not (= x06 (_ bv8 8))))
(assert (not (= x06 (_ bv9 8))))
(assert (not (= x06 (_ bv3 8))))
(assert (not (= x06 x56)))
(assert (not (= x06 x66)))
(assert (not (= x06 (_ bv5 8))))
(assert (not (= x06 x86)))
(assert (not (= (_ bv7 8) (_ bv8 8))))
(assert (not (= (_ bv7 8) (_ bv9 8))))
(assert (not (= (_ bv7 8) (_ bv3 8))))
(assert (not (= (_ bv7 8) x56)))
(assert (not (= (_ bv7 8) x66)))
(assert (not (= (_ bv7 8) (_ bv5 8))))
(assert (not (= (_ bv7 8) x86)))
(assert (not (= (_ bv8 8) (_ bv9 8))))
(assert (not (= (_ bv8 8) (_ bv3 8))))
(assert (not (= (_ bv8 8) x56)))
(assert (not (= (_ bv8 8) x66)))
(assert (not (= (_ bv8 8) (_ bv5 8))))
(assert (not (= (_ bv8 8) x86)))
(assert (not (= (_ bv9 8) (_ bv3 8))))
(assert (not (= (_ bv9 8) x56)))
(assert (not (= (_ bv9 8) x66)))
(assert (not (= (_ bv9 8) (_ bv5 8))))
(assert (not (= (_ bv9 8) x86)))
(assert (not (= (_ bv3 8) x56)))
(assert (not (= (_ bv3 8) x66)))
(assert (not (= (_ bv3 8) (_ bv5 8))))
(assert (not (= (_ bv3 8) x86)))
(assert (not (= x56 x66)))
(assert (not (= x56 (_ bv5 8))))
(assert (not (= x56 x86)))
(assert (not (= x66 (_ bv5 8))))
(assert (not (= x66 x86)))
(assert (not (= (_ bv5 8) x86)))
(assert (not (= x07 (_ bv2 8))))
(assert (not (= x07 x27)))
(assert (not (= x07 x37)))
(assert (not (= x07 x47)))
(assert (not (= x07 x57)))
(assert (not (= x07 x67)))
(assert (not (= x07 x77)))
(assert (not (= x07 x87)))
(assert (not (= (_ bv2 8) x27)))
(assert (not (= (_ bv2 8) x37)))
(assert (not (= (_ bv2 8) x47)))
(assert (not (= (_ bv2 8) x57)))
(assert (not (= (_ bv2 8) x67)))
(assert (not (= (_ bv2 8) x77)))
(assert (not (= (_ bv2 8) x87)))
(assert (not (= x27 x37)))
(assert (not (= x27 x47)))
(assert (not (= x27 x57)))
(assert (not (= x27 x67)))
(assert (not (= x27 x77)))
(assert (not (= x27 x87)))
(assert (not (= x37 x47)))
(assert (not (= x37 x57)))
(assert (not (= x37 x67)))
(assert (not (= x37 x77)))
(assert (not (= x37 x87)))
(assert (not (= x47 x57)))
(assert (not (= x47 x67)))
(assert (not (= x47 x77)))
(assert (not (= x47 x87)))
(assert (not (= x57 x67)))
(assert (not (= x57 x77)))
(assert (not (= x57 x87)))
(assert (not (= x67 x77)))
(assert (not (= x67 x87)))
(assert (not (= x77 x87)))
(assert (not (= x08 x18)))
(assert (not (= x08 (_ bv3 8))))
(assert (not (= x08 x38)))
(assert (not (= x08 (_ bv5 8))))
(assert (not (= x08 (_ bv4 8))))
(assert (not (= x08 (_ bv8 8))))
(assert (not (= x08 (_ bv6 8))))
(assert (not (= x08 x88)))
(assert (not (= x18 (_ bv3 8))))
(assert (not (= x18 x38)))
(assert (not (= x18 (_ bv5 8))))
(assert (not (= x18 (_ bv4 8))))
(assert (not (= x18 (_ bv8 8))))
(assert (not (= x18 (_ bv6 8))))
(assert (not (= x18 x88)))
(assert (not (= (_ bv3 8) x38)))
(assert (not (= (_ bv3 8) (_ bv5 8))))
(assert (not (= (_ bv3 8) (_ bv4 8))))
(assert (not (= (_ bv3 8) (_ bv8 8))))
(assert (not (= (_ bv3 8) (_ bv6 8))))
(assert (not (= (_ bv3 8) x88)))
(assert (not (= x38 (_ bv5 8))))
(assert (not (= x38 (_ bv4 8))))
(assert (not (= x38 (_ bv8 8))))
(assert (not (= x38 (_ bv6 8))))
(assert (not (= x38 x88)))
(assert (not (= (_ bv5 8) (_ bv4 8))))
(assert (not (= (_ bv5 8) (_ bv8 8))))
(assert (not (= (_ bv5 8) (_ bv6 8))))
(assert (not (= (_ bv5 8) x88)))
(assert (not (= (_ bv4 8) (_ bv8 8))))
(assert (not (= (_ bv4 8) (_ bv6 8))))
(assert (not (= (_ bv4 8) x88)))
(assert (not (= (_ bv8 8) (_ bv6 8))))
(assert (not (= (_ bv8 8) x88)))
(assert (not (= (_ bv6 8) x88)))
(assert (not (= x00 x01)))
(assert (not (= x00 x02)))
(assert (not (= x00 x10)))
(assert (not (= x00 (_ bv9 8))))
(assert (not (= x00 (_ bv5 8))))
(assert (not (= x00 (_ bv2 8))))
(assert (not (= x00 x21)))
(assert (not (= x00 (_ bv4 8))))
(assert (not (= x01 x02)))
(assert (not (= x01 x10)))
(assert (not (= x01 (_ bv9 8))))
(assert (not (= x01 (_ bv5 8))))
(assert (not (= x01 (_ bv2 8))))
(assert (not (= x01 x21)))
(assert (not (= x01 (_ bv4 8))))
(assert (not (= x02 x10)))
(assert (not (= x02 (_ bv9 8))))
(assert (not (= x02 (_ bv5 8))))
(assert (not (= x02 (_ bv2 8))))
(assert (not (= x02 x21)))
(assert (not (= x02 (_ bv4 8))))
(assert (not (= x10 (_ bv9 8))))
(assert (not (= x10 (_ bv5 8))))
(assert (not (= x10 (_ bv2 8))))
(assert (not (= x10 x21)))
(assert (not (= x10 (_ bv4 8))))
(assert (not (= (_ bv9 8) (_ bv5 8))))
(assert (not (= (_ bv9 8) (_ bv2 8))))
(assert (not (= (_ bv9 8) x21)))
(assert (not (= (_ bv9 8) (_ bv4 8))))
(assert (not (= (_ bv5 8) (_ bv2 8))))
(assert (not (= (_ bv5 8) x21)))
(assert (not (= (_ bv5 8) (_ bv4 8))))
(assert (not (= (_ bv2 8) x21)))
(assert (not (= (_ bv2 8) (_ bv4 8))))
(assert (not (= x21 (_ bv4 8))))
(assert (not (= x03 (_ bv1 8))))
(assert (not (= x03 (_ bv6 8))))
(assert (not (= x03 (_ bv8 8))))
(assert (not (= x03 x14)))
(assert (not (= x03 (_ bv4 8))))
(assert (not (= x03 x23)))
(assert (not (= x03 (_ bv9 8))))
(assert (not (= x03 x25)))
(assert (not (= (_ bv1 8) (_ bv6 8))))
(assert (not (= (_ bv1 8) (_ bv8 8))))
(assert (not (= (_ bv1 8) x14)))
(assert (not (= (_ bv1 8) (_ bv4 8))))
(assert (not (= (_ bv1 8) x23)))
(assert (not (= (_ bv1 8) (_ bv9 8))))
(assert (not (= (_ bv1 8) x25)))
(assert (not (= (_ bv6 8) (_ bv8 8))))
(assert (not (= (_ bv6 8) x14)))
(assert (not (= (_ bv6 8) (_ bv4 8))))
(assert (not (= (_ bv6 8) x23)))
(assert (not (= (_ bv6 8) (_ bv9 8))))
(assert (not (= (_ bv6 8) x25)))
(assert (not (= (_ bv8 8) x14)))
(assert (not (= (_ bv8 8) (_ bv4 8))))
(assert (not (= (_ bv8 8) x23)))
(assert (not (= (_ bv8 8) (_ bv9 8))))
(assert (not (= (_ bv8 8) x25)))
(assert (not (= x14 (_ bv4 8))))
(assert (not (= x14 x23)))
(assert (not (= x14 (_ bv9 8))))
(assert (not (= x14 x25)))
(assert (not (= (_ bv4 8) x23)))
(assert (not (= (_ bv4 8) (_ bv9 8))))
(assert (not (= (_ bv4 8) x25)))
(assert (not (= x23 (_ bv9 8))))
(assert (not (= x23 x25)))
(assert (not (= (_ bv9 8) x25)))
(assert (not (= x06 x07)))
(assert (not (= x06 x08)))
(assert (not (= x06 (_ bv7 8))))
(assert (not (= x06 (_ bv2 8))))
(assert (not (= x06 x18)))
(assert (not (= x06 (_ bv8 8))))
(assert (not (= x06 x27)))
(assert (not (= x06 (_ bv3 8))))
(assert (not (= x07 x08)))
(assert (not (= x07 (_ bv7 8))))
(assert (not (= x07 (_ bv2 8))))
(assert (not (= x07 x18)))
(assert (not (= x07 (_ bv8 8))))
(assert (not (= x07 x27)))
(assert (not (= x07 (_ bv3 8))))
(assert (not (= x08 (_ bv7 8))))
(assert (not (= x08 (_ bv2 8))))
(assert (not (= x08 x18)))
(assert (not (= x08 (_ bv8 8))))
(assert (not (= x08 x27)))
(assert (not (= x08 (_ bv3 8))))
(assert (not (= (_ bv7 8) (_ bv2 8))))
(assert (not (= (_ bv7 8) x18)))
(assert (not (= (_ bv7 8) (_ bv8 8))))
(assert (not (= (_ bv7 8) x27)))
(assert (not (= (_ bv7 8) (_ bv3 8))))
(assert (not (= (_ bv2 8) x18)))
(assert (not (= (_ bv2 8) (_ bv8 8))))
(assert (not (= (_ bv2 8) x27)))
(assert (not (= (_ bv2 8) (_ bv3 8))))
(assert (not (= x18 (_ bv8 8))))
(assert (not (= x18 x27)))
(assert (not (= x18 (_ bv3 8))))
(assert (not (= (_ bv8 8) x27)))
(assert (not (= (_ bv8 8) (_ bv3 8))))
(assert (not (= x27 (_ bv3 8))))
(assert (not (= x30 x31)))
(assert (not (= x30 (_ bv1 8))))
(assert (not (= x30 x40)))
(assert (not (= x30 x41)))
(assert (not (= x30 (_ bv8 8))))
(assert (not (= x30 (_ bv5 8))))
(assert (not (= x30 x51)))
(assert (not (= x30 (_ bv3 8))))
(assert (not (= x31 (_ bv1 8))))
(assert (not (= x31 x40)))
(assert (not (= x31 x41)))
(assert (not (= x31 (_ bv8 8))))
(assert (not (= x31 (_ bv5 8))))
(assert (not (= x31 x51)))
(assert (not (= x31 (_ bv3 8))))
(assert (not (= (_ bv1 8) x40)))
(assert (not (= (_ bv1 8) x41)))
(assert (not (= (_ bv1 8) (_ bv8 8))))
(assert (not (= (_ bv1 8) (_ bv5 8))))
(assert (not (= (_ bv1 8) x51)))
(assert (not (= (_ bv1 8) (_ bv3 8))))
(assert (not (= x40 x41)))
(assert (not (= x40 (_ bv8 8))))
(assert (not (= x40 (_ bv5 8))))
(assert (not (= x40 x51)))
(assert (not (= x40 (_ bv3 8))))
(assert (not (= x41 (_ bv8 8))))
(assert (not (= x41 (_ bv5 8))))
(assert (not (= x41 x51)))
(assert (not (= x41 (_ bv3 8))))
(assert (not (= (_ bv8 8) (_ bv5 8))))
(assert (not (= (_ bv8 8) x51)))
(assert (not (= (_ bv8 8) (_ bv3 8))))
(assert (not (= (_ bv5 8) x51)))
(assert (not (= (_ bv5 8) (_ bv3 8))))
(assert (not (= x51 (_ bv3 8))))
(assert (not (= x33 (_ bv7 8))))
(assert (not (= x33 x35)))
(assert (not (= x33 (_ bv4 8))))
(assert (not (= x33 x44)))
(assert (not (= x33 x45)))
(assert (not (= x33 x53)))
(assert (not (= x33 (_ bv2 8))))
(assert (not (= x33 x55)))
(assert (not (= (_ bv7 8) x35)))
(assert (not (= (_ bv7 8) (_ bv4 8))))
(assert (not (= (_ bv7 8) x44)))
(assert (not (= (_ bv7 8) x45)))
(assert (not (= (_ bv7 8) x53)))
(assert (not (= (_ bv7 8) (_ bv2 8))))
(assert (not (= (_ bv7 8) x55)))
(assert (not (= x35 (_ bv4 8))))
(assert (not (= x35 x44)))
(assert (not (= x35 x45)))
(assert (not (= x35 x53)))
(assert (not (= x35 (_ bv2 8))))
(assert (not (= x35 x55)))
(assert (not (= (_ bv4 8) x44)))
(assert (not (= (_ bv4 8) x45)))
(assert (not (= (_ bv4 8) x53)))
(assert (not (= (_ bv4 8) (_ bv2 8))))
(assert (not (= (_ bv4 8) x55)))
(assert (not (= x44 x45)))
(assert (not (= x44 x53)))
(assert (not (= x44 (_ bv2 8))))
(assert (not (= x44 x55)))
(assert (not (= x45 x53)))
(assert (not (= x45 (_ bv2 8))))
(assert (not (= x45 x55)))
(assert (not (= x53 (_ bv2 8))))
(assert (not (= x53 x55)))
(assert (not (= (_ bv2 8) x55)))
(assert (not (= (_ bv9 8) x37)))
(assert (not (= (_ bv9 8) x38)))
(assert (not (= (_ bv9 8) (_ bv3 8))))
(assert (not (= (_ bv9 8) x47)))
(assert (not (= (_ bv9 8) (_ bv5 8))))
(assert (not (= (_ bv9 8) x56)))
(assert (not (= (_ bv9 8) x57)))
(assert (not (= (_ bv9 8) (_ bv4 8))))
(assert (not (= x37 x38)))
(assert (not (= x37 (_ bv3 8))))
(assert (not (= x37 x47)))
(assert (not (= x37 (_ bv5 8))))
(assert (not (= x37 x56)))
(assert (not (= x37 x57)))
(assert (not (= x37 (_ bv4 8))))
(assert (not (= x38 (_ bv3 8))))
(assert (not (= x38 x47)))
(assert (not (= x38 (_ bv5 8))))
(assert (not (= x38 x56)))
(assert (not (= x38 x57)))
(assert (not (= x38 (_ bv4 8))))
(assert (not (= (_ bv3 8) x47)))
(assert (not (= (_ bv3 8) (_ bv5 8))))
(assert (not (= (_ bv3 8) x56)))
(assert (not (= (_ bv3 8) x57)))
(assert (not (= (_ bv3 8) (_ bv4 8))))
(assert (not (= x47 (_ bv5 8))))
(assert (not (= x47 x56)))
(assert (not (= x47 x57)))
(assert (not (= x47 (_ bv4 8))))
(assert (not (= (_ bv5 8) x56)))
(assert (not (= (_ bv5 8) x57)))
(assert (not (= (_ bv5 8) (_ bv4 8))))
(assert (not (= x56 x57)))
(assert (not (= x56 (_ bv4 8))))
(assert (not (= x57 (_ bv4 8))))
(assert (not (= (_ bv7 8) (_ bv4 8))))
(assert (not (= (_ bv7 8) x62)))
(assert (not (= (_ bv7 8) x70)))
(assert (not (= (_ bv7 8) (_ bv8 8))))
(assert (not (= (_ bv7 8) (_ bv2 8))))
(assert (not (= (_ bv7 8) x80)))
(assert (not (= (_ bv7 8) x81)))
(assert (not (= (_ bv7 8) x82)))
(assert (not (= (_ bv4 8) x62)))
(assert (not (= (_ bv4 8) x70)))
(assert (not (= (_ bv4 8) (_ bv8 8))))
(assert (not (= (_ bv4 8) (_ bv2 8))))
(assert (not (= (_ bv4 8) x80)))
(assert (not (= (_ bv4 8) x81)))
(assert (not (= (_ bv4 8) x82)))
(assert (not (= x62 x70)))
(assert (not (= x62 (_ bv8 8))))
(assert (not (= x62 (_ bv2 8))))
(assert (not (= x62 x80)))
(assert (not (= x62 x81)))
(assert (not (= x62 x82)))
(assert (not (= x70 (_ bv8 8))))
(assert (not (= x70 (_ bv2 8))))
(assert (not (= x70 x80)))
(assert (not (= x70 x81)))
(assert (not (= x70 x82)))
(assert (not (= (_ bv8 8) (_ bv2 8))))
(assert (not (= (_ bv8 8) x80)))
(assert (not (= (_ bv8 8) x81)))
(assert (not (= (_ bv8 8) x82)))
(assert (not (= (_ bv2 8) x80)))
(assert (not (= (_ bv2 8) x81)))
(assert (not (= (_ bv2 8) x82)))
(assert (not (= x80 x81)))
(assert (not (= x80 x82)))
(assert (not (= x81 x82)))
(assert (not (= (_ bv6 8) x64)))
(assert (not (= (_ bv6 8) x65)))
(assert (not (= (_ bv6 8) (_ bv3 8))))
(assert (not (= (_ bv6 8) x74)))
(assert (not (= (_ bv6 8) x75)))
(assert (not (= (_ bv6 8) x83)))
(assert (not (= (_ bv6 8) x84)))
(assert (not (= (_ bv6 8) (_ bv9 8))))
(assert (not (= x64 x65)))
(assert (not (= x64 (_ bv3 8))))
(assert (not (= x64 x74)))
(assert (not (= x64 x75)))
(assert (not (= x64 x83)))
(assert (not (= x64 x84)))
(assert (not (= x64 (_ bv9 8))))
(assert (not (= x65 (_ bv3 8))))
(assert (not (= x65 x74)))
(assert (not (= x65 x75)))
(assert (not (= x65 x83)))
(assert (not (= x65 x84)))
(assert (not (= x65 (_ bv9 8))))
(assert (not (= (_ bv3 8) x74)))
(assert (not (= (_ bv3 8) x75)))
(assert (not (= (_ bv3 8) x83)))
(assert (not (= (_ bv3 8) x84)))
(assert (not (= (_ bv3 8) (_ bv9 8))))
(assert (not (= x74 x75)))
(assert (not (= x74 x83)))
(assert (not (= x74 x84)))
(assert (not (= x74 (_ bv9 8))))
(assert (not (= x75 x83)))
(assert (not (= x75 x84)))
(assert (not (= x75 (_ bv9 8))))
(assert (not (= x83 x84)))
(assert (not (= x83 (_ bv9 8))))
(assert (not (= x84 (_ bv9 8))))
(assert (not (= x66 x67)))
(assert (not (= x66 (_ bv8 8))))
(assert (not (= x66 (_ bv5 8))))
(assert (not (= x66 x77)))
(assert (not (= x66 (_ bv6 8))))
(assert (not (= x66 x86)))
(assert (not (= x66 x87)))
(assert (not (= x66 x88)))
(assert (not (= x67 (_ bv8 8))))
(assert (not (= x67 (_ bv5 8))))
(assert (not (= x67 x77)))
(assert (not (= x67 (_ bv6 8))))
(assert (not (= x67 x86)))
(assert (not (= x67 x87)))
(assert (not (= x67 x88)))
(assert (not (= (_ bv8 8) (_ bv5 8))))
(assert (not (= (_ bv8 8) x77)))
(assert (not (= (_ bv8 8) (_ bv6 8))))
(assert (not (= (_ bv8 8) x86)))
(assert (not (= (_ bv8 8) x87)))
(assert (not (= (_ bv8 8) x88)))
(assert (not (= (_ bv5 8) x77)))
(assert (not (= (_ bv5 8) (_ bv6 8))))
(assert (not (= (_ bv5 8) x86)))
(assert (not (= (_ bv5 8) x87)))
(assert (not (= (_ bv5 8) x88)))
(assert (not (= x77 (_ bv6 8))))
(assert (not (= x77 x86)))
(assert (not (= x77 x87)))
(assert (not (= x77 x88)))
(assert (not (= (_ bv6 8) x86)))
(assert (not (= (_ bv6 8) x87)))
(assert (not (= (_ bv6 8) x88)))
(assert (not (= x86 x87)))
(assert (not (= x86 x88)))
(assert (not (= x87 x88)))
(check-sat)
(exit)
